c --- [ banner ] -------------------------------------------------------------
c 
c CaDiCaL SAT Solver
c Copyright (c) 2016-2023 A. Biere, M. Fleury, N. Froleyks, K. Fazekas, F. Pollitt
c 
c Version 1.9.5
c g++ (Ubuntu 11.4.0-1ubuntu1~22.04) 11.4.0 -Wall -Wextra -O3 -DNDEBUG -static
c Thu Mar 7 06:16:21 CET 2024 Linux pc101447 6.5.0-17-generic x86_64
c 
c --- [ limit ] --------------------------------------------------------------
c 
c setting time limit to 3600 seconds real time (due to '-t 3600')
c 
c --- [ parsing input ] ------------------------------------------------------
c 
c reading DIMACS file from '/home/oliveras/SAT-comp-2023//5a72cb588bcda7b1b54a1eac6b19ab2e-hash_table_find_safety_size_23.cnf'
c opening file to read '/home/oliveras/SAT-comp-2023//5a72cb588bcda7b1b54a1eac6b19ab2e-hash_table_find_safety_size_23.cnf'
c found 'p cnf 14140522 64659736' header
c parsed 64659736 clauses in 28.09 seconds process time
c 
c --- [ options ] ------------------------------------------------------------
c 
c   --seed=1                       (different from default '0')
c 
c --- [ solving ] ------------------------------------------------------------
c 
c time measured in process time since initialization
c 
c  seconds    reductions  redundant   irredundant
c          MB     restarts       trail          variables
c            level   conflicts       glue              remaining
c 
c * 28.09 7857  0 0   0    0    0  0% 0 56857195 12840549 91%
c { 28.54 7898  0 0   0    0    0  0% 0 56857195 12840549 91%
c } 28.78 7907 680 0   0 1844    5 10% 229 56857195 12840549 91%
c [ 28.78 7907  0 0   0 1844    5  0% 0 56857195 12840549 91%
c - 34.13 7955  0 1   0 1844    5  0% 0 56265812 12840549 91%
c O 34.19 7955  0 1   0 1845    5  9% 0 56265812 12840549 91%
c i 34.19 7955  0 1   0 1845    5  9% 0 56265812 12840531 91%
c i 34.20 7955  0 1   0 1846    5  9% 0 56265812 12840466 91%
c i 34.22 7955  0 1   0 1847    5  9% 0 56265812 12840465 91%
c i 34.24 7955  0 1   0 1848    5  9% 0 56265812 12787291 90%
c i 34.29 7955  0 1   0 1849    5  9% 0 56265812 12787287 90%
c i 34.32 7955  0 1   0 1850    5 10% 0 56265812 12787171 90%
c i 38.70 8038 68 1   0 1858   10 34% 5 56265812 12787152 90%
c i 38.78 8038 56 1   0 1861   12 29% 4 56265812 12730671 90%
c i 38.79 8038 46 1   0 1865   15 26% 4 56265812 12730609 90%
c i 38.79 8038 40 1   0 1869   18 23% 4 56265812 12729915 90%
c i 38.80 8038 37 1   0 1871   19 22% 4 56265812 12729852 90%
c i 39.24 8038 25 1   0 1888   23 17% 3 56265812 12727491 90%
c i 63.07 8242 558 1   1 3430  973 49% 34 56265812 12727422 90%
c i 63.16 8243 565 1   1 3528 1055 47% 32 56265812 12727416 90%
c 
c  seconds     reductions  redundant    irredundant
c          MB      restarts       trail           variables
c             level   conflicts       glue               remaining
c 
c i 63.19 8243 566 1   1 3544 1064 47% 31 56265812 12727117 90%
c i 63.20 8243 567 1   1 3553 1067 47% 31 56265812 12726871 90%
c i 67.08 8243 568 1   1 3574 1083 46% 31 56265812 12726868 90%
c i 73.05 8244 570 1   1 3630 1127 45% 33 56265812 12726864 90%
c i 73.09 8244 570 1   1 3658 1151 45% 34 56265812 12726861 90%
c i 76.27 8260 569 1   1 3729 1213 43% 35 56265812 12726856 90%
c i 89.36 8260 566 1   1 3801 1276 43% 35 56265812 12726851 90%
c ] 100.33 8260 562 1   1 3845 1315 43% 35 56265812 12726851 90%
c { 100.33 8260 680 1   1 3845 1315 10% 229 56265812 12726851 90%
c F 100.50 8260 612 1   1 3846 1316 10% 206 56265812 12726847 90%
c i 100.52 8260 471 1   1 3849 1318 10% 159 56265812 12726150 90%
c i 147.21 10033 438 1   1 3850 1285 36% 147 53495566 12726147 90%
c i 148.40 10034 368 1   1 3853 1287 37% 122 53495566 12726145 90%
c i 148.43 10034 351 1   1 3854 1287 37% 115 53495566 12726143 90%
c i 148.47 10034 336 1   1 3855 1287 37% 109 53495566 12726141 90%
c i 148.50 10034 322 1   1 3856 1287 37% 103 53495566 12726139 90%
c i 148.56 10034 309 1   1 3857 1287 37% 98 53495566 12726137 90%
c i 148.59 10034 298 1   1 3858 1287 37% 94 53495566 12726135 90%
c i 148.62 10034 288 1   1 3859 1287 37% 90 53495566 12726133 90%
c i 148.65 10034 278 1   1 3860 1287 37% 86 53495566 12726131 90%
c 
c  seconds       reductions  redundant    irredundant
c            MB      restarts       trail           variables
c               level   conflicts       glue               remaining
c 
c i 148.70 10034 269 1   1 3861 1287 37% 83 53495566 12726129 90%
c i 148.73 10034 261 1   1 3862 1287 37% 80 53495566 12726127 90%
c i 148.77 10034 254 1   1 3863 1287 37% 77 53495566 12726125 90%
c i 148.80 10034 247 1   1 3864 1287 37% 74 53495566 12726123 90%
c i 148.85 10034 241 1   1 3865 1287 37% 71 53495566 12726121 90%
c i 148.88 10034 235 1   1 3866 1287 37% 69 53495566 12726119 90%
c i 148.92 10034 229 1   1 3867 1287 37% 67 53495566 12726117 90%
c i 148.95 10034 224 1   1 3868 1287 37% 65 53495566 12726115 90%
c i 148.99 10034 219 1   1 3869 1287 38% 63 53495566 12726113 90%
c i 149.02 10034 214 1   1 3870 1287 38% 61 53495566 12726111 90%
c i 149.07 10034 210 1   1 3871 1287 38% 59 53495566 12726109 90%
c i 149.10 10034 205 1   1 3872 1287 38% 57 53495566 12726107 90%
c i 149.14 10034 201 1   1 3873 1287 38% 56 53495566 12726105 90%
c i 149.17 10034 198 1   1 3874 1287 38% 54 53495566 12726103 90%
c i 149.20 10034 194 1   1 3875 1287 38% 53 53495566 12726101 90%
c i 149.23 10034 191 1   1 3876 1287 38% 52 53495566 12726099 90%
c i 149.27 10034 188 1   1 3877 1287 38% 50 53495566 12726097 90%
c i 149.30 10034 185 1   1 3878 1287 38% 49 53495566 12726095 90%
c i 149.34 10034 182 1   1 3879 1287 38% 48 53495566 12726093 90%
c i 149.37 10034 179 1   1 3880 1287 38% 47 53495566 12726091 90%
c 
c  seconds       reductions  redundant    irredundant
c            MB      restarts       trail           variables
c               level   conflicts       glue               remaining
c 
c i 149.41 10034 176 1   1 3881 1287 38% 46 53495566 12726089 90%
c i 149.44 10034 174 1   1 3882 1287 38% 45 53495566 12726087 90%
c - 163.74 10037 450 2   1 4105 1416 41% 14 53495377 12726087 90%
c s 180.39 9455 640 2   1 4295 1468 42% 11 53495373 12726087 90%
c v 241.93 10037 640 2   1 4295 1468 42% 11 53495182 12726087 90%
c w 254.54 10037 640 2   1 4295 1467 42% 11 53495182 12726087 90%
c t 256.54 10037 640 2   1 4295 1467 42% 11 53495169 12726087 90%
c e 370.22 9213 640 2   1 4295  126 42% 11 7683520 877620  6%
c s 374.36 9213 640 2   1 4295  126 42% 11 7683418 877620  6%
c e 377.85 9213 640 2   1 4295  126 42% 11 7683948 877567  6%
c i 387.04 9950 5884664 2   1 4605  301 63% 8 7683947 813721  6%
c i 387.35 9950 5742710 2   5 4619  309 62% 8 7683947 329460  2%
c i 387.48 9950 5253703 2  12 4675  355 58% 8 7683947 319088  2%
c i 387.56 9950 4336535 2  12 4812  427 50% 7 7683947 319080  2%
c i 387.58 9950 4330890 2  12 4814  427 50% 7 7683947 319079  2%
c i 389.61 9953 4352828 2  14 4950  439 45% 7 7683947 318266  2%
c i 389.64 9953 4314206 2  16 4957  445 45% 7 7683947 318264  2%
c i 389.69 9953 4265541 2  17 4968  453 44% 7 7683947 318253  2%
c i 389.82 9953 4105973 2  26 5000  481 43% 8 7683947 318032  2%
c d 392.40 9953 4105973 2  27 5000  448 43% 8 4391786 310469  2%
c 
c  seconds          reductions  redundant   irredundant
c           MB          restarts       trail        variables
c                level     conflicts       glue           remaining
c 
c d 394.01 9959 4105973 2  27 5000  447 43% 8 4177259 217938  2%
c 3 395.49 9376 4105973 2  27 5000 183534 43% 8 4177258 217938  2%
c 2 398.83 9959 4105973 2  27 5000 183532 43% 8 4005416 212719  2%
c p 401.78 9959 4105973 2  27 5000 1655697 43% 8 4005416 196771  1%
c d 403.54 9959 4105973 2  27 5000 300641 43% 8 2524852 196746  1%
c d 405.05 9959 4105973 2  27 5000 299873 43% 8 2509732 189186  1%
c i 405.46 9959 3790235 2  44 5089 299908 41% 11 2509732 189180  1%
c i 405.46 9959 3760888 2  45 5099 299911 40% 12 2509732 189172  1%
c i 405.46 9959 3727898 2  46 5107 299915 40% 12 2509732 189170  1%
c i 405.46 9959 3476236 2  47 5184 299918 38% 13 2509732 189133  1%
c i 405.46 9959 3472682 2  48 5185 299918 38% 13 2509732 189088  1%
c i 405.46 9959 3455023 2  48 5190 299919 38% 13 2509732 189085  1%
c i 405.46 9959 3399698 2  49 5206 299929 37% 13 2509732 189082  1%
c i 405.46 9959 3352714 2  50 5222 299939 37% 13 2509732 189076  1%
c i 405.46 9959 3329704 2  51 5229 299939 37% 13 2509732 189071  1%
c i 405.46 9959 3313460 2  52 5235 299939 37% 13 2509732 189067  1%
c i 405.46 9959 3297373 2  53 5241 299939 37% 13 2509732 189063  1%
c i 405.46 9959 3265660 2  54 5252 299939 36% 13 2509732 189059  1%
c i 405.46 9959 3262521 2  55 5253 299939 36% 13 2509732 189050  1%
c i 405.46 9959 3250029 2  55 5257 299940 36% 13 2509732 189049  1%
c 
c  seconds          reductions   redundant     irredundant
c           MB          restarts         trail         variables
c                level     conflicts         glue            remaining
c 
c i 405.46 9959 3231468 2  56 5265 299945 36% 13 2509732 189045  1%
c i 405.46 9959 3194972 2  57 5277 299945 36% 12 2509732 189040  1%
c i 405.46 9959 3191968 2  57 5278 299945 36% 12 2509732 189032  1%
c i 405.47 9959 3168134 2  57 5287 299945 36% 12 2509732 189030  1%
c i 405.47 9959 3165180 2  57 5288 299945 36% 12 2509732 189022  1%
c i 405.47 9959 3159288 2  57 5292 299946 35% 12 2509732 189018  1%
c i 405.47 9959 3115781 2  57 5307 299946 35% 12 2509732 189015  1%
c i 405.47 9959 3112923 2  57 5308 299946 35% 12 2509732 189007  1%
c i 405.47 9959 3107222 2  57 5312 299947 35% 12 2509732 189002  1%
c i 405.47 9959 3054085 2  57 5331 299949 35% 12 2509732 188999  1%
c i 405.47 9959 3032248 2  57 5340 299955 34% 13 2509732 188997  1%
c i 405.47 9959 3026838 2  58 5342 299956 34% 13 2509732 188989  1%
c i 405.47 9959 3021446 2  59 5344 299957 34% 13 2509732 188979  1%
c i 405.47 9959 3018757 2  59 5345 299957 34% 13 2509732 188970  1%
c i 405.47 9959 3016073 2  59 5346 299957 34% 13 2509732 188968  1%
c i 405.47 9959 3013393 2  60 5347 299957 34% 13 2509732 188966  1%
c i 405.47 9959 3010719 2  60 5348 299957 34% 13 2509732 188965  1%
c i 405.47 9959 3008049 2  60 5349 299957 34% 13 2509732 188964  1%
c i 405.47 9959 3005384 2  61 5350 299957 34% 13 2509732 188963  1%
c i 405.47 9959 3002723 2  61 5351 299957 34% 13 2509732 188962  1%
c 
c  seconds          reductions   redundant     irredundant
c           MB          restarts         trail         variables
c                level     conflicts         glue            remaining
c 
c i 405.47 9959 3000067 2  61 5352 299957 34% 13 2509732 188961  1%
c i 405.50 9959 2978987 2  64 5360 299963 34% 13 2509732 188944  1%
c i 405.50 9959 2976373 2  64 5361 299963 34% 13 2509732 188942  1%
c i 405.50 9959 2973763 2  65 5362 299963 34% 13 2509732 188940  1%
c i 405.51 9959 2940246 2  65 5375 299970 34% 13 2509732 188912  1%
c i 405.51 9959 2932618 2  65 5378 299972 34% 13 2509732 188903  1%
c i 405.72 9959 2774215 2  65 5445 300011 32% 12 2509732 188894  1%
c i 405.72 9959 2769680 2  65 5447 300012 32% 12 2509732 188893  1%
c i 405.72 9959 2765160 2  65 5449 300013 32% 12 2509732 188888  1%
c i 405.72 9959 2751687 2  65 5455 300016 32% 12 2509732 188884  1%
c i 405.72 9959 2749454 2  65 5456 300016 32% 12 2509732 188883  1%
c i 405.72 9959 2747224 2  65 5457 300016 32% 12 2509732 188882  1%
c i 405.72 9959 2744999 2  65 5458 300016 32% 12 2509732 188881  1%
c i 405.72 9959 2742777 2  65 5459 300016 32% 12 2509732 188878  1%
c i 405.74 9959 2688364 2  65 5486 300027 32% 12 2509731 188874  1%
c i 405.74 9959 2681978 2  65 5489 300029 32% 12 2509731 188873  1%
c i 405.79 9959 2466995 2  65 5646 300122 29% 11 2509731 188871  1%
c i 405.81 9959 2398771 2  65 5691 300142 29% 11 2509725 188864  1%
c i 406.90 9959 2252591 2  71 5806 300233 28% 11 2509725 188844  1%
c i 406.90 9959 2234894 2  71 5819 300243 27% 10 2509725 188839  1%
c 
c  seconds          reductions   redundant     irredundant
c           MB          restarts         trail         variables
c                level     conflicts         glue            remaining
c 
c i 406.90 9959 2217471 2  71 5832 300253 27% 10 2509725 188834  1%
c i 406.90 9959 2200315 2  71 5845 300263 27% 10 2509725 188825  1%
c i 406.90 9959 2193244 2  71 5850 300267 27% 10 2509725 188824  1%
c i 406.90 9959 2191835 2  71 5851 300267 27% 10 2509725 188823  1%
c i 406.90 9959 2190428 2  71 5852 300267 27% 10 2509725 188822  1%
c i 406.90 9959 2189023 2  71 5853 300267 27% 10 2509725 188821  1%
c i 406.90 9959 2187620 2  71 5854 300267 27% 10 2509725 188820  1%
c i 406.90 9959 2186218 2  71 5855 300267 27% 10 2509725 188819  1%
c i 406.90 9959 2184818 2  71 5856 300267 27% 10 2509725 188818  1%
c i 406.90 9959 2183420 2  71 5857 300267 27% 10 2509725 188817  1%
c i 406.90 9959 2182024 2  71 5858 300267 27% 10 2509725 188816  1%
c i 406.90 9959 2180630 2  71 5859 300267 27% 10 2509725 188815  1%
c i 406.90 9959 2179237 2  71 5860 300267 27% 10 2509725 188814  1%
c i 406.90 9959 2177846 2  71 5861 300267 27% 10 2509725 188813  1%
c i 406.90 9959 2176457 2  71 5862 300267 27% 10 2509725 188812  1%
c i 406.90 9959 2175069 2  71 5863 300267 27% 10 2509725 188811  1%
c i 407.92 9959 1703762 2  82 6351 300598 23% 13 2509709 188728  1%
c i 407.92 9959 1702908 2  83 6352 300598 23% 13 2509709 188727  1%
c i 407.92 9959 1702055 2  83 6353 300598 23% 13 2509709 188726  1%
c i 407.92 9959 1701203 2  83 6354 300598 23% 13 2509709 188725  1%
c 
c  seconds          reductions   redundant     irredundant
c           MB          restarts         trail         variables
c                level     conflicts         glue            remaining
c 
c i 407.92 9959 1700351 2  84 6355 300598 23% 13 2509709 188724  1%
c i 407.92 9959 1699500 2  84 6356 300598 23% 13 2509709 188723  1%
c i 407.92 9959 1698651 2  84 6357 300598 23% 13 2509709 188722  1%
c i 407.92 9959 1697802 2  85 6358 300598 23% 13 2509709 188721  1%
c i 407.92 9959 1696953 2  85 6359 300598 23% 13 2509709 188719  1%
c i 407.93 9959 1686840 2  89 6371 300609 23% 13 2509709 188718  1%
c # 409.16 9959 1370332 2 106 6849 300852 20% 12 2509707 188718  1%
c i 409.54 9959 1302202 2 112 6982 300963 19% 12 2509707 188717  1%
c i 409.85 9959 1207569 2 132 7198 301142 18% 12 2509706 188693  1%
c i 409.85 9959 1205409 2 132 7203 301142 18% 12 2509706 188677  1%
c i 409.85 9959 1203257 2 132 7208 301142 18% 12 2509706 188661  1%
c i 409.85 9959 1201112 2 132 7213 301142 18% 12 2509706 188645  1%
c i 409.85 9959 1199829 2 133 7216 301142 18% 12 2509706 188637  1%
c i 409.85 9959 1198975 2 134 7218 301142 18% 12 2509706 188629  1%
c i 409.85 9959 1198122 2 134 7220 301142 18% 12 2509706 188621  1%
c i 409.85 9959 1197270 2 135 7222 301142 18% 12 2509706 188613  1%
c i 409.85 9959 1196420 2 135 7224 301142 18% 12 2509706 188601  1%
c i 410.06 9959 1160547 2 136 7312 301212 18% 12 2509705 188598  1%
c i 410.10 9959 1143977 2 136 7354 301246 17% 12 2509705 188595  1%
c - 413.24 9655 1104161 3 140 7460 5934 17% 12 2506294 188595  1%
c 
c  seconds         reductions  redundant    irredundant
c           MB         restarts       trail         variables
c               level     conflicts       glue            remaining
c 
c } 413.93 9655 984590 3 142 7845 6178 16% 11 2506294 188595  1%
c [ 413.93 9655 562 3 142 7845 6178 48% 35 2506294 188595  1%
c i 416.62 9655 811 3 143 8906 6807 33% 25 2506293 188594  1%
c - 424.18 7690 616 4 143 10339 7066 40% 20 2506030 188594  1%
c I 424.35 7690 573 4 143 10849 7321 38% 18 2506030 188594  1%
c - 425.78 7690 410 5 144 13938 8349 35% 14 2505937 188594  1%
c d 427.77 7690 374 5 145 15000 8922 32% 13 2505929 188589  1%
c 3 428.49 7599 374 5 145 15000 13231 32% 13 2505929 188589  1%
c d 428.97 7599 374 5 145 15000 14001 32% 13 2505929 188588  1%
c 2 429.15 7599 374 5 145 15000 13935 32% 13 2505386 188588  1%
c p 429.49 7599 374 5 145 15000 161564 32% 13 2505386 183472  1%
c d 429.73 7599 374 5 145 15000 95762 32% 13 2347137 183450  1%
c d 430.08 7599 374 5 145 15000 95757 32% 13 2337504 178744  1%
c i 431.11 7599 359 5 146 15363 95824 31% 12 2337504 178637  1%
c ] 431.68 7599 342 5 146 15845 95952 30% 12 2337504 178637  1%
c { 431.68 7599 984590 5 146 15845 95952 1074% 11 2337504 178637  1%
c B 431.70 7599 983145 5 146 15850 95955 1072% 11 2337504 178637  1%
c i 431.76 7599 975980 5 146 15875 95972 1066% 11 2337504 178636  1%
c i 432.16 7599 935579 5 146 16027 96049 1027% 11 2337504 178363  1%
c i 432.23 7599 921644 5 146 16083 96095 1013% 10 2337504 174553  1%
c 
c  seconds         reductions    redundant      irredundant
c           MB         restarts          trail          variables
c               level      conflicts          glue            remaining
c 
c i 432.23 7599 921390 5 146 16084 96095 1013% 10 2337504 174316  1%
c i 432.23 7599 920375 5 146 16091 96095 1012% 10 2337504 174249  1%
c } 432.23 7599 919868 5 146 16094 96095 1011% 10 2337504 173866  1%
c 0 432.23 7599 919868 5 146 16094 96095 1011% 10 2337504 173866  1%
c 
c --- [ result ] -------------------------------------------------------------
c 
s UNSATISFIABLE
c 
c --- [ run-time profiling ] -------------------------------------------------
c 
c process time taken by individual solving procedures
c (percentage relative to process time for solving)
c 
c       218.26   54.01% simplify
c       185.87   45.99% search
c       114.45   28.32% elim
c        98.63   24.41% unstable
c        86.79   21.48% stable
c        67.49   16.70% vivify
c        28.09    6.95% parse
c        16.59    4.11% subsume
c         4.22    1.05% ternary
c         3.29    0.81% probe
c         0.45    0.11% lucky
c   =================================
c       404.14   93.50% solve
c 
c last line shows process time for solving
c (percentage relative to total process time)
c 
c --- [ statistics ] ---------------------------------------------------------
c 
c chronological:              9286        57.70 %  of conflicts
c conflicts:                 16094        39.82    per second
c decisions:              53637686    132721.67    per second
c eliminated:             11847272        83.78 %  of all variables
c fixed:                   1991567        14.08 %  of all variables
c learned:                    9937        61.74 %  per conflict
c learned_lits:             850234       100.00 %  learned literals
c minimized:                     0         0.00 %  learned literals
c shrunken:                 167335        19.68 %  learned literals
c minishrunken:              52660         6.19 %  learned literals
c otfs:                       3679        22.86 %  of conflict
c propagations:          620033364         1.53 M  per second
c reduced:                     739         4.59 %  per conflict
c rephased:                      5      3218.80    interval
c restarts:                    146       110.23    interval
c stabilizing:                   2        61.50 %  of conflicts
c substituted:              112411         0.79 %  of all variables
c subsumed:                 203943         0.26 %  of all clauses
c strengthened:             116463         0.15 %  of all clauses
c ternary:                  188231         0.62 %  of resolved
c trail reuses:                  0         0.00 %  of incremental calls
c vivified:                    322         0.00 %  of all clauses
c weakened:               52490139         3.27    average size
c 
c seconds are measured in process time for solving
c 
c --- [ resources ] ----------------------------------------------------------
c 
c total process time since initialization:       432.23    seconds
c total real time since initialization:          432.22    seconds
c maximum resident set size of process:        12432.91    MB
c 
c --- [ shutting down ] ------------------------------------------------------
c 
c exit 20
